(set-logic QF_S)
(declare-fun var0 () String)
(assert (RegexIn var0 (RegexConcat (RegexStar (RegexUnion (Str2Reg "0") (Str2Reg "1"))) (RegexConcat (RegexStar (RegexUnion (Str2Reg "222") (Str2Reg "333"))) (RegexConcat (RegexPlus (RegexUnion (Str2Reg "444") (Str2Reg "55"))) (RegexConcat (RegexPlus (RegexUnion (Str2Reg "6") (Str2Reg "777"))) (RegexConcat (RegexUnion (RegexUnion (Str2Reg "888") (Str2Reg "9")) (RegexUnion (Str2Reg "aaa") (Str2Reg "bbb"))) (RegexConcat (RegexUnion (RegexUnion (Str2Reg "cc") (Str2Reg "ddd")) (RegexUnion (Str2Reg "eee") (Str2Reg "f"))) (RegexConcat (RegexStar (RegexStar (Str2Reg "gg"))) (RegexConcat (RegexPlus (RegexStar (Str2Reg "hh"))) (RegexConcat (RegexStar (RegexPlus (Str2Reg "ii"))) (RegexConcat (RegexPlus (RegexUnion (Str2Reg "jjj") (Str2Reg "k"))) (RegexConcat (RegexPlus (RegexPlus (Str2Reg "ll"))) (RegexConcat (RegexStar (RegexStar (Str2Reg "m"))) (RegexConcat (RegexUnion (RegexUnion (Str2Reg "nn") (Str2Reg "o")) (RegexUnion (Str2Reg "pp") (Str2Reg "q"))) (RegexConcat (RegexUnion (RegexUnion (Str2Reg "r") (Str2Reg "s")) (RegexUnion (Str2Reg "t") (Str2Reg "uu"))) (RegexConcat (RegexPlus (RegexPlus (Str2Reg "vvv"))) (RegexConcat (RegexUnion (RegexUnion (Str2Reg "w") (Str2Reg "xxx")) (RegexUnion (Str2Reg "yyy") (Str2Reg "zz"))) (RegexConcat (RegexStar (RegexPlus (Str2Reg "AAA"))) (RegexConcat (RegexPlus (RegexStar (Str2Reg "BB"))) (RegexConcat (RegexUnion (RegexStar (Str2Reg "CCC")) (RegexStar (Str2Reg "DDD"))) (RegexConcat (RegexStar (RegexStar (Str2Reg "EE"))) (RegexConcat (RegexUnion (RegexUnion (Str2Reg "FF") (Str2Reg "GG")) (RegexUnion (Str2Reg "H") (Str2Reg "I"))) (RegexConcat (RegexPlus (RegexUnion (Str2Reg "JJJ") (Str2Reg "K"))) (RegexConcat (RegexPlus (RegexPlus (Str2Reg "LLL"))) (RegexConcat (RegexPlus (RegexPlus (Str2Reg "MM"))) (RegexConcat (RegexStar (RegexStar (Str2Reg "N"))) (RegexConcat (RegexUnion (RegexUnion (Str2Reg "O") (Str2Reg "PPP")) (RegexUnion (Str2Reg "Q") (Str2Reg "RRR"))) (RegexConcat (RegexPlus (RegexPlus (Str2Reg "SSS"))) (RegexConcat (RegexPlus (RegexPlus (Str2Reg "TTT"))) (RegexConcat (RegexPlus (RegexPlus (Str2Reg "UU"))) (RegexConcat (RegexStar (RegexUnion (Str2Reg "VVV") (Str2Reg "WWW"))) (RegexConcat (RegexStar (RegexUnion (Str2Reg "XX") (Str2Reg "YYY"))) (RegexConcat (RegexPlus (RegexStar (Str2Reg "Z"))) (RegexConcat (RegexPlus (RegexUnion (Str2Reg "!") (Str2Reg "\"\"\""))) (RegexConcat (RegexPlus (RegexStar (Str2Reg "###"))) (RegexConcat (RegexStar (RegexPlus (Str2Reg "$$"))) (RegexConcat (RegexStar (RegexUnion (Str2Reg "%%%") (Str2Reg "&&&"))) (RegexConcat (RegexStar (RegexStar (Str2Reg "'''"))) (RegexConcat (RegexStar (RegexPlus (Str2Reg "("))) (RegexConcat (RegexStar (RegexStar (Str2Reg ")"))) (RegexConcat (RegexUnion (RegexPlus (Str2Reg "**")) (RegexPlus (Str2Reg "++"))) (RegexConcat (RegexPlus (RegexStar (Str2Reg ",,,"))) (RegexConcat (RegexPlus (RegexStar (Str2Reg "--"))) (RegexConcat (RegexUnion (RegexStar (Str2Reg "..")) (RegexStar (Str2Reg "//"))) (RegexConcat (RegexUnion (RegexUnion (Str2Reg ":") (Str2Reg ";")) (RegexUnion (Str2Reg "<<") (Str2Reg "=="))) (RegexConcat (RegexUnion (RegexUnion (Str2Reg ">") (Str2Reg "??")) (RegexUnion (Str2Reg "@@") (Str2Reg "[[["))) (RegexConcat (RegexPlus (RegexStar (Str2Reg "\\\\"))) (RegexConcat (RegexPlus (RegexStar (Str2Reg "]]]"))) (RegexConcat (RegexUnion (RegexStar (Str2Reg "^")) (RegexStar (Str2Reg "__"))) (RegexConcat (RegexStar (RegexUnion (Str2Reg "``") (Str2Reg "{"))) (RegexConcat (RegexUnion (RegexUnion (Str2Reg "|") (Str2Reg "}")) (RegexUnion (Str2Reg "~~~") (Str2Reg "00"))) (RegexConcat (RegexStar (RegexStar (Str2Reg "1"))) (RegexConcat (RegexPlus (RegexStar (Str2Reg "222"))) (RegexConcat (RegexStar (RegexStar (Str2Reg "333"))) (RegexConcat (RegexStar (RegexStar (Str2Reg "444"))) (RegexConcat (RegexUnion (RegexPlus (Str2Reg "555")) (RegexPlus (Str2Reg "66"))) (RegexConcat (RegexUnion (RegexStar (Str2Reg "777")) (RegexStar (Str2Reg "88"))) (RegexConcat (RegexUnion (RegexUnion (Str2Reg "9") (Str2Reg "aa")) (RegexUnion (Str2Reg "bbb") (Str2Reg "c"))) (RegexConcat (RegexPlus (RegexPlus (Str2Reg "ddd"))) (RegexConcat (RegexStar (RegexUnion (Str2Reg "eee") (Str2Reg "f"))) (RegexConcat (RegexUnion (RegexStar (Str2Reg "ggg")) (RegexStar (Str2Reg "h"))) (RegexConcat (RegexUnion (RegexStar (Str2Reg "i")) (RegexStar (Str2Reg "jjj"))) (RegexConcat (RegexUnion (RegexUnion (Str2Reg "k") (Str2Reg "l")) (RegexUnion (Str2Reg "mm") (Str2Reg "nn"))) (RegexConcat (RegexUnion (RegexUnion (Str2Reg "oo") (Str2Reg "ppp")) (RegexUnion (Str2Reg "qqq") (Str2Reg "rr"))) (RegexConcat (RegexPlus (RegexUnion (Str2Reg "ss") (Str2Reg "t"))) (RegexConcat (RegexPlus (RegexUnion (Str2Reg "uuu") (Str2Reg "vvv"))) (RegexConcat (RegexUnion (RegexStar (Str2Reg "ww")) (RegexStar (Str2Reg "x"))) (RegexConcat (RegexPlus (RegexUnion (Str2Reg "yy") (Str2Reg "z"))) (RegexConcat (RegexPlus (RegexPlus (Str2Reg "AA"))) (RegexConcat (RegexUnion (RegexPlus (Str2Reg "BBB")) (RegexPlus (Str2Reg "CCC"))) (RegexConcat (RegexUnion (RegexStar (Str2Reg "DDD")) (RegexStar (Str2Reg "EE"))) (RegexConcat (RegexStar (RegexStar (Str2Reg "F"))) (RegexConcat (RegexUnion (RegexUnion (Str2Reg "GGG") (Str2Reg "HHH")) (RegexUnion (Str2Reg "III") (Str2Reg "JJ"))) (RegexConcat (RegexStar (RegexUnion (Str2Reg "KKK") (Str2Reg "L"))) (RegexConcat (RegexUnion (RegexPlus (Str2Reg "MM")) (RegexPlus (Str2Reg "N"))) (RegexConcat (RegexStar (RegexPlus (Str2Reg "OOO"))) (RegexConcat (RegexStar (RegexPlus (Str2Reg "PP"))) (RegexConcat (RegexPlus (RegexPlus (Str2Reg "QQQ"))) (RegexConcat (RegexUnion (RegexUnion (Str2Reg "RRR") (Str2Reg "S")) (RegexUnion (Str2Reg "T") (Str2Reg "UUU"))) (RegexConcat (RegexUnion (RegexStar (Str2Reg "VV")) (RegexStar (Str2Reg "W"))) (RegexConcat (RegexPlus (RegexUnion (Str2Reg "X") (Str2Reg "YYY"))) (RegexPlus (RegexUnion (Str2Reg "ZZ") (Str2Reg "!!!")))))))))))))))))))))))))))))))))))))))))))))))))))))))))))))))))))))))))))))))))))))
(assert (not (RegexIn var0 (RegexConcat (RegexStar (RegexUnion (Str2Reg "0") (Str2Reg "11"))) (RegexConcat (RegexUnion (RegexPlus (Str2Reg "2")) (RegexPlus (Str2Reg "333"))) (RegexConcat (RegexPlus (RegexStar (Str2Reg "4"))) (RegexConcat (RegexStar (RegexPlus (Str2Reg "55"))) (RegexConcat (RegexStar (RegexUnion (Str2Reg "666") (Str2Reg "7"))) (RegexConcat (RegexPlus (RegexPlus (Str2Reg "888"))) (RegexConcat (RegexStar (RegexStar (Str2Reg "999"))) (RegexConcat (RegexStar (RegexStar (Str2Reg "a"))) (RegexConcat (RegexPlus (RegexUnion (Str2Reg "b") (Str2Reg "cc"))) (RegexConcat (RegexPlus (RegexStar (Str2Reg "d"))) (RegexConcat (RegexStar (RegexStar (Str2Reg "ee"))) (RegexConcat (RegexUnion (RegexPlus (Str2Reg "f")) (RegexPlus (Str2Reg "g"))) (RegexConcat (RegexUnion (RegexStar (Str2Reg "hh")) (RegexStar (Str2Reg "ii"))) (RegexConcat (RegexUnion (RegexStar (Str2Reg "jjj")) (RegexStar (Str2Reg "kk"))) (RegexConcat (RegexPlus (RegexStar (Str2Reg "lll"))) (RegexConcat (RegexStar (RegexStar (Str2Reg "mmm"))) (RegexConcat (RegexStar (RegexStar (Str2Reg "n"))) (RegexConcat (RegexUnion (RegexUnion (Str2Reg "oo") (Str2Reg "pp")) (RegexUnion (Str2Reg "qq") (Str2Reg "rrr"))) (RegexConcat (RegexUnion (RegexPlus (Str2Reg "s")) (RegexPlus (Str2Reg "t"))) (RegexConcat (RegexPlus (RegexUnion (Str2Reg "uu") (Str2Reg "v"))) (RegexConcat (RegexStar (RegexPlus (Str2Reg "ww"))) (RegexConcat (RegexPlus (RegexUnion (Str2Reg "xx") (Str2Reg "yyy"))) (RegexConcat (RegexStar (RegexPlus (Str2Reg "zz"))) (RegexConcat (RegexStar (RegexStar (Str2Reg "AAA"))) (RegexConcat (RegexPlus (RegexUnion (Str2Reg "BBB") (Str2Reg "CC"))) (RegexConcat (RegexUnion (RegexUnion (Str2Reg "D") (Str2Reg "E")) (RegexUnion (Str2Reg "FF") (Str2Reg "GGG"))) (RegexConcat (RegexStar (RegexStar (Str2Reg "H"))) (RegexConcat (RegexPlus (RegexUnion (Str2Reg "II") (Str2Reg "JJ"))) (RegexConcat (RegexUnion (RegexUnion (Str2Reg "K") (Str2Reg "LLL")) (RegexUnion (Str2Reg "M") (Str2Reg "NNN"))) (RegexConcat (RegexUnion (RegexUnion (Str2Reg "OO") (Str2Reg "PP")) (RegexUnion (Str2Reg "QQQ") (Str2Reg "R"))) (RegexConcat (RegexUnion (RegexUnion (Str2Reg "SSS") (Str2Reg "TT")) (RegexUnion (Str2Reg "U") (Str2Reg "VVV"))) (RegexConcat (RegexPlus (RegexPlus (Str2Reg "W"))) (RegexConcat (RegexPlus (RegexPlus (Str2Reg "XXX"))) (RegexConcat (RegexStar (RegexStar (Str2Reg "Y"))) (RegexConcat (RegexUnion (RegexStar (Str2Reg "ZZ")) (RegexStar (Str2Reg "!!"))) (RegexConcat (RegexPlus (RegexPlus (Str2Reg "\"\"\""))) (RegexConcat (RegexUnion (RegexUnion (Str2Reg "#") (Str2Reg "$$")) (RegexUnion (Str2Reg "%%%") (Str2Reg "&&"))) (RegexConcat (RegexPlus (RegexUnion (Str2Reg "''") (Str2Reg "("))) (RegexConcat (RegexUnion (RegexStar (Str2Reg ")")) (RegexStar (Str2Reg "*"))) (RegexConcat (RegexPlus (RegexStar (Str2Reg "++"))) (RegexConcat (RegexStar (RegexPlus (Str2Reg ",,,"))) (RegexConcat (RegexStar (RegexStar (Str2Reg "---"))) (RegexConcat (RegexStar (RegexPlus (Str2Reg ".."))) (RegexConcat (RegexUnion (RegexPlus (Str2Reg "//")) (RegexPlus (Str2Reg ":"))) (RegexConcat (RegexPlus (RegexPlus (Str2Reg ";;;"))) (RegexConcat (RegexUnion (RegexStar (Str2Reg "<<")) (RegexStar (Str2Reg "=="))) (RegexConcat (RegexStar (RegexPlus (Str2Reg ">>"))) (RegexConcat (RegexUnion (RegexStar (Str2Reg "???")) (RegexStar (Str2Reg "@@@"))) (RegexConcat (RegexUnion (RegexStar (Str2Reg "[")) (RegexStar (Str2Reg "\\\\"))) (RegexConcat (RegexPlus (RegexStar (Str2Reg "]]]"))) (RegexConcat (RegexStar (RegexPlus (Str2Reg "^^"))) (RegexConcat (RegexUnion (RegexPlus (Str2Reg "___")) (RegexPlus (Str2Reg "``"))) (RegexConcat (RegexPlus (RegexUnion (Str2Reg "{{") (Str2Reg "|||"))) (RegexConcat (RegexPlus (RegexUnion (Str2Reg "}") (Str2Reg "~~"))) (RegexConcat (RegexUnion (RegexStar (Str2Reg "00")) (RegexStar (Str2Reg "1"))) (RegexConcat (RegexUnion (RegexPlus (Str2Reg "22")) (RegexPlus (Str2Reg "333"))) (RegexConcat (RegexUnion (RegexStar (Str2Reg "44")) (RegexStar (Str2Reg "5"))) (RegexConcat (RegexStar (RegexPlus (Str2Reg "6"))) (RegexConcat (RegexUnion (RegexUnion (Str2Reg "77") (Str2Reg "88")) (RegexUnion (Str2Reg "99") (Str2Reg "a"))) (RegexConcat (RegexStar (RegexUnion (Str2Reg "bb") (Str2Reg "c"))) (RegexConcat (RegexPlus (RegexUnion (Str2Reg "ddd") (Str2Reg "eee"))) (RegexConcat (RegexPlus (RegexStar (Str2Reg "fff"))) (RegexConcat (RegexPlus (RegexPlus (Str2Reg "gg"))) (RegexConcat (RegexUnion (RegexStar (Str2Reg "hhh")) (RegexStar (Str2Reg "iii"))) (RegexConcat (RegexPlus (RegexStar (Str2Reg "jj"))) (RegexConcat (RegexStar (RegexPlus (Str2Reg "kkk"))) (RegexConcat (RegexUnion (RegexPlus (Str2Reg "l")) (RegexPlus (Str2Reg "mm"))) (RegexConcat (RegexStar (RegexUnion (Str2Reg "nnn") (Str2Reg "oo"))) (RegexConcat (RegexUnion (RegexStar (Str2Reg "pp")) (RegexStar (Str2Reg "qqq"))) (RegexConcat (RegexPlus (RegexStar (Str2Reg "r"))) (RegexConcat (RegexStar (RegexPlus (Str2Reg "ss"))) (RegexConcat (RegexPlus (RegexUnion (Str2Reg "tt") (Str2Reg "u"))) (RegexConcat (RegexStar (RegexStar (Str2Reg "vvv"))) (RegexConcat (RegexUnion (RegexUnion (Str2Reg "w") (Str2Reg "xx")) (RegexUnion (Str2Reg "yyy") (Str2Reg "z"))) (RegexConcat (RegexPlus (RegexStar (Str2Reg "AA"))) (RegexConcat (RegexStar (RegexUnion (Str2Reg "B") (Str2Reg "CCC"))) (RegexConcat (RegexUnion (RegexUnion (Str2Reg "DDD") (Str2Reg "E")) (RegexUnion (Str2Reg "FF") (Str2Reg "GGG"))) (RegexConcat (RegexPlus (RegexStar (Str2Reg "HH"))) (RegexConcat (RegexPlus (RegexPlus (Str2Reg "I"))) (RegexConcat (RegexUnion (RegexStar (Str2Reg "JJJ")) (RegexStar (Str2Reg "KKK"))) (RegexUnion (RegexUnion (Str2Reg "L") (Str2Reg "M")) (RegexUnion (Str2Reg "NN") (Str2Reg "O"))))))))))))))))))))))))))))))))))))))))))))))))))))))))))))))))))))))))))))))))))))))
(check-sat)